NAME 
ROWS
 N  OBJ
 L  R0      
 E  R1      
 E  R2      
 E  R3      
 E  R4      
 E  R5      
 E  R6      
 E  R7      
 E  R8      
 E  R9      
 E  R10     
 E  R11     
 E  R12     
 E  R13     
 E  R14     
 E  R15     
 E  R16     
 E  R17     
 E  R18     
 E  R19     
 E  R20     
 E  R21     
 E  R22     
 E  R23     
 E  R24     
 E  R25     
 E  R26     
 E  R27     
 E  R28     
 E  R29     
 E  R30     
 E  R31     
 E  R32     
 E  R33     
 E  R34     
 E  R35     
 E  R36     
 E  R37     
 E  R38     
 E  R39     
 E  R40     
COLUMNS
    MARKER    'MARKER'                 'INTORG'
    I0(3)     OBJ       91
    I0(3)     R0        83
    I0(3)     R1        4
    I0(3)     R40       1
    I1(3)     OBJ       -151
    I1(3)     R0        136
    I1(3)     R2        5
    I1(3)     R40       1
    I2(3)     OBJ       156
    I2(3)     R0        32
    I2(3)     R3        9
    I2(3)     R40       1
    I3(3)     OBJ       59
    I3(3)     R0        179
    I3(3)     R4        3
    I3(3)     R40       1
    I4(3)     OBJ       -4
    I4(3)     R0        -31
    I4(3)     R5        19
    I4(3)     R40       1
    I5(3)     OBJ       -19
    I5(3)     R0        165
    I5(3)     R6        10
    I5(3)     R40       1
    I6(3)     OBJ       -167
    I6(3)     R0        -19
    I6(3)     R7        18
    I6(3)     R40       1
    I7(3)     OBJ       46
    I7(3)     R0        103
    I7(3)     R8        2
    I7(3)     R40       1
    I8(3)     OBJ       -191
    I8(3)     R0        -180
    I8(3)     R9        7
    I8(3)     R40       1
    I9(3)     OBJ       67
    I9(3)     R0        10
    I9(3)     R10       9
    I9(3)     R40       1
    I10(3)    OBJ       -57
    I10(3)    R0        11
    I10(3)    R11       9
    I10(3)    R40       1
    I11(3)    OBJ       192
    I11(3)    R0        -180
    I11(3)    R12       2
    I11(3)    R40       1
    I12(2)    OBJ       -125
    I12(2)    R0        -139
    I12(2)    R40       1
    I13(3)    OBJ       38
    I13(3)    R0        -89
    I13(3)    R14       10
    I13(3)    R40       1
    I14(3)    OBJ       159
    I14(3)    R0        -168
    I14(3)    R15       3
    I14(3)    R40       1
    I15(3)    OBJ       -94
    I15(3)    R0        114
    I15(3)    R16       3
    I15(3)    R40       1
    I16(3)    OBJ       -112
    I16(3)    R0        176
    I16(3)    R17       4
    I16(3)    R40       1
    I17(3)    OBJ       -137
    I17(3)    R0        143
    I17(3)    R18       11
    I17(3)    R40       1
    I18(3)    OBJ       177
    I18(3)    R0        -9
    I18(3)    R19       11
    I18(3)    R40       1
    I19(3)    OBJ       143
    I19(3)    R0        157
    I19(3)    R20       13
    I19(3)    R40       1
    I20(3)    OBJ       -20
    I20(3)    R0        24
    I20(3)    R21       10
    I20(3)    R40       1
    I21(3)    OBJ       111
    I21(3)    R0        -98
    I21(3)    R22       15
    I21(3)    R40       1
    I22(3)    OBJ       29
    I22(3)    R0        15
    I22(3)    R23       13
    I22(3)    R40       1
    I23(3)    OBJ       1
    I23(3)    R0        -33
    I23(3)    R24       15
    I23(3)    R40       1
    I24(3)    OBJ       -136
    I24(3)    R0        -199
    I24(3)    R25       14
    I24(3)    R40       1
    I25(3)    OBJ       88
    I25(3)    R0        177
    I25(3)    R26       11
    I25(3)    R40       1
    I26(2)    OBJ       -84
    I26(2)    R0        -140
    I26(2)    R40       1
    I27(3)    OBJ       5
    I27(3)    R0        127
    I27(3)    R28       11
    I27(3)    R40       1
    I28(3)    OBJ       -111
    I28(3)    R0        -108
    I28(3)    R29       1
    I28(3)    R40       1
    I29(3)    OBJ       172
    I29(3)    R0        -124
    I29(3)    R30       19
    I29(3)    R40       1
    I30(3)    OBJ       139
    I30(3)    R0        47
    I30(3)    R31       6
    I30(3)    R40       1
    I31(3)    OBJ       -106
    I31(3)    R0        152
    I31(3)    R32       10
    I31(3)    R40       1
    I32(3)    OBJ       -22
    I32(3)    R0        -186
    I32(3)    R33       4
    I32(3)    R40       1
    I33(3)    OBJ       152
    I33(3)    R0        157
    I33(3)    R34       7
    I33(3)    R40       1
    I34(3)    OBJ       -155
    I34(3)    R0        78
    I34(3)    R35       1
    I34(3)    R40       1
    I35(3)    OBJ       -110
    I35(3)    R0        -32
    I35(3)    R36       15
    I35(3)    R40       1
    I36(3)    OBJ       -104
    I36(3)    R0        -164
    I36(3)    R37       12
    I36(3)    R40       1
    I37(2)    OBJ       94
    I37(2)    R0        -186
    I37(2)    R40       1
    MARKER    'MARKER'                 'INTEND'
    C38(36)   R0        4
    C38(36)   R1        2
    C38(36)   R2        3
    C38(36)   R3        6
    C38(36)   R4        9
    C38(36)   R5        5
    C38(36)   R7        15
    C38(36)   R8        1
    C38(36)   R9        5
    C38(36)   R10       -1
    C38(36)   R11       12
    C38(36)   R12       6
    C38(36)   R13       7
    C38(36)   R14       17
    C38(36)   R15       4
    C38(36)   R16       5
    C38(36)   R17       14
    C38(36)   R18       2
    C38(36)   R20       16
    C38(36)   R21       1
    C38(36)   R22       3
    C38(36)   R23       6
    C38(36)   R24       4
    C38(36)   R25       14
    C38(36)   R26       3
    C38(36)   R27       18
    C38(36)   R28       3
    C38(36)   R29       16
    C38(36)   R31       19
    C38(36)   R32       14
    C38(36)   R33       14
    C38(36)   R34       6
    C38(36)   R35       18
    C38(36)   R36       13
    C38(36)   R37       18
    C38(36)   R39       12
    C39(38)   OBJ       -6
    C39(38)   R0        1
    C39(38)   R2        -1
    C39(38)   R3        8
    C39(38)   R4        13
    C39(38)   R5        7
    C39(38)   R6        10
    C39(38)   R7        9
    C39(38)   R8        6
    C39(38)   R9        19
    C39(38)   R10       2
    C39(38)   R11       1
    C39(38)   R12       2
    C39(38)   R13       2
    C39(38)   R14       13
    C39(38)   R15       1
    C39(38)   R16       1
    C39(38)   R17       16
    C39(38)   R18       12
    C39(38)   R19       19
    C39(38)   R20       3
    C39(38)   R21       16
    C39(38)   R22       18
    C39(38)   R23       2
    C39(38)   R24       9
    C39(38)   R25       -1
    C39(38)   R26       1
    C39(38)   R27       11
    C39(38)   R28       5
    C39(38)   R29       9
    C39(38)   R30       4
    C39(38)   R32       10
    C39(38)   R33       11
    C39(38)   R34       5
    C39(38)   R35       13
    C39(38)   R36       13
    C39(38)   R37       13
    C39(38)   R38       18
    C39(38)   R39       4
    C40(1)    R1        1
    C41(1)    R2        1
    C42(1)    R3        1
    C43(1)    R4        1
    C44(1)    R5        1
    C45(1)    R6        1
    C46(1)    R7        1
    C47(1)    R8        1
    C48(1)    R9        1
    C49(1)    R10       1
    C50(1)    R11       1
    C51(1)    R12       1
    C52(1)    R13       1
    C53(1)    R14       1
    C54(1)    R15       1
    C55(1)    R16       1
    C56(1)    R17       1
    C57(1)    R18       1
    C58(1)    R19       1
    C59(1)    R20       1
    C60(1)    R21       1
    C61(1)    R22       1
    C62(1)    R23       1
    C63(1)    R24       1
    C64(1)    R25       1
    C65(1)    R26       1
    C66(1)    R27       1
    C67(1)    R28       1
    C68(1)    R29       1
    C69(1)    R30       1
    C70(1)    R31       1
    C71(1)    R32       1
    C72(1)    R33       1
    C73(1)    R34       1
    C74(1)    R35       1
    C75(1)    R36       1
    C76(1)    R37       1
    C77(1)    R38       1
    C78(1)    R39       1
    C79(1)    R40       1
RHS
    RHS1      R0        -1.5336842105263159e+02
    RHS1      R1        87
    RHS1      R2        59
    RHS1      R3        54
    RHS1      R4        56
    RHS1      R5        51
    RHS1      R6        94
    RHS1      R7        93
    RHS1      R8        61
    RHS1      R9        57
    RHS1      R10       63
    RHS1      R11       82
    RHS1      R12       87
    RHS1      R13       90
    RHS1      R14       56
    RHS1      R15       95
    RHS1      R16       54
    RHS1      R17       58
    RHS1      R18       89
    RHS1      R19       97
    RHS1      R20       56
    RHS1      R21       69
    RHS1      R22       78
    RHS1      R23       77
    RHS1      R24       77
    RHS1      R25       59
    RHS1      R26       86
    RHS1      R27       94
    RHS1      R28       99
    RHS1      R29       61
    RHS1      R30       58
    RHS1      R31       54
    RHS1      R32       91
    RHS1      R33       84
    RHS1      R34       60
    RHS1      R35       72
    RHS1      R36       85
    RHS1      R37       92
    RHS1      R38       56
    RHS1      R39       91
    RHS1      R40       12
BOUNDS
 UP BND1      I0(3)     1
 UP BND1      I1(3)     1
 UP BND1      I2(3)     1
 UP BND1      I3(3)     1
 UP BND1      I4(3)     1
 UP BND1      I5(3)     1
 UP BND1      I6(3)     1
 UP BND1      I7(3)     1
 UP BND1      I8(3)     1
 UP BND1      I9(3)     1
 UP BND1      I10(3)    1
 UP BND1      I11(3)    1
 UP BND1      I12(2)    1
 UP BND1      I13(3)    1
 UP BND1      I14(3)    1
 UP BND1      I15(3)    1
 UP BND1      I16(3)    1
 UP BND1      I17(3)    1
 UP BND1      I18(3)    1
 UP BND1      I19(3)    1
 UP BND1      I20(3)    1
 UP BND1      I21(3)    1
 UP BND1      I22(3)    1
 UP BND1      I23(3)    1
 UP BND1      I24(3)    1
 UP BND1      I25(3)    1
 UP BND1      I26(2)    1
 UP BND1      I27(3)    1
 UP BND1      I28(3)    1
 UP BND1      I29(3)    1
 UP BND1      I30(3)    1
 UP BND1      I31(3)    1
 UP BND1      I32(3)    1
 UP BND1      I33(3)    1
 UP BND1      I34(3)    1
 UP BND1      I35(3)    1
 UP BND1      I36(3)    1
 UP BND1      I37(2)    1
ENDATA
